(set-info :smt-lib-version 2.6)
(set-logic QF_LIA)
(set-info :category "industrial")
(set-info :status sat)
(declare-fun x0 () Int)
(declare-fun x1 () Int)
(declare-fun x10 () Int)
(declare-fun x11 () Int)
(declare-fun x12 () Int)
(declare-fun x13 () Int)
(declare-fun x14 () Int)
(declare-fun x15 () Int)
(declare-fun x16 () Int)
(declare-fun x17 () Int)
(declare-fun x18 () Int)
(declare-fun x19 () Int)
(declare-fun x2 () Int)
(declare-fun x20 () Int)
(declare-fun x21 () Int)
(declare-fun x22 () Int)
(declare-fun x23 () Int)
(declare-fun x24 () Int)
(declare-fun x25 () Int)
(declare-fun x26 () Int)
(declare-fun x27 () Int)
(declare-fun x28 () Int)
(declare-fun x29 () Int)
(declare-fun x3 () Int)
(declare-fun x30 () Int)
(declare-fun x31 () Int)
(declare-fun x32 () Int)
(declare-fun x33 () Int)
(declare-fun x34 () Int)
(declare-fun x35 () Int)
(declare-fun x36 () Int)
(declare-fun x37 () Int)
(declare-fun x38 () Int)
(declare-fun x39 () Int)
(declare-fun x4 () Int)
(declare-fun x40 () Int)
(declare-fun x41 () Int)
(declare-fun x42 () Int)
(declare-fun x43 () Int)
(declare-fun x44 () Int)
(declare-fun x5 () Int)
(declare-fun x6 () Int)
(declare-fun x7 () Int)
(declare-fun x8 () Int)
(declare-fun x9 () Int)
(assert (let ((?v_7 (* 0 x1)) (?v_38 (* 0 x10)) (?v_81 (* 1 x13)) (?v_0 (* 0 x14)) (?v_87 (* 0 x17)) (?v_17 (* 0 x19)) (?v_2 (* 0 x21)) (?v_28 (* 0 x25)) (?v_8 (* 1 x22)) (?v_50 (* 0 x29)) (?v_3 (* 0 x31)) (?v_10 (* 1 x35)) (?v_4 (* 0 x38)) (?v_5 (* 0 x39)) (?v_68 (* 0 x4)) (?v_6 (* 0 x8)) (?v_12 (* 1 x42)) (?v_46 (* 0 x37)) (?v_121 (* 1 x1)) (?v_88 (* 1 x11)) (?v_26 (* 0 x12)) (?v_13 (* 0 x15)) (?v_64 (* 0 x22)) (?v_30 (* 0 x27)) (?v_107 (* 1 x26)) (?v_31 (* 1 x28)) (?v_9 (* 0 x34)) (?v_22 (* 0 x7)) (?v_67 (* 1 x3)) (?v_84 (* 1 x36)) (?v_86 (* 1 x41)) (?v_54 (* 1 x43)) (?v_79 (* 1 x5)) (?v_37 (* 0 x0)) (?v_71 (* 0 x11)) (?v_109 (* 1 x2)) (?v_16 (* 2 x14)) (?v_42 (* 0 x23)) (?v_29 (* 0 x26)) (?v_65 (* 0 x32)) (?v_21 (* 0 x6)) (?v_23 (* 0 x9)) (?v_35 (* 1 x29)) (?v_33 (* 1 x30)) (?v_19 (* 1 x38)) (?v_45 (* 0 x43)) (?v_27 (* 0 x13)) (?v_98 (* 0 x30)) (?v_32 (* 0 x35)) (?v_85 (* 1 x4)) (?v_44 (* 0 x16)) (?v_34 (* 0 x5)) (?v_55 (* 1 x0)) (?v_62 (* 1 x17)) (?v_40 (* 0 x18)) (?v_41 (* 0 x20)) (?v_51 (* 0 x44)) (?v_52 (* 1 x37)) (?v_53 (* 1 x40)) (?v_83 (* 0 x2)) (?v_66 (* 0 x33)) (?v_106 (* 1 x14)) (?v_78 (* 0 x40)) (?v_111 (* 1 x21)) (?v_70 (* 1 x7)) (?v_94 (* 1 x9)) (?v_63 (* 1 x20)) (?v_75 (* 1 x24)) (?v_76 (* 1 x25)) (?v_77 (* 0 x3)) (?v_99 (* 1 x31)) (?v_69 (* 0 x41)) (?v_108 (* 1 x12)) (?v_103 (* 0 x42)) (?v_123 (* 1 x32)) (?v_92 (* 0 x24)) (?v_114 (* 1 x34)) (?v_100 (* 1 x39)) (?v_122 (* 1 x15)) (?v_104 (* 0 x36)) (?v_116 (* 1 x6)) (?v_112 (* 1 x10)) (?v_113 (* 1 x16)) (?v_120 (* 1 x18)) (?v_110 (* 1 x33)) (?v_118 (* 2 x39)) (?v_117 (* 1 x27)) (?v_124 (* 1 x44)) (?v_47 (* (- 1) x0)) (?v_56 (* (- 1) x11)) (?v_80 (* (- 1) x12)) (?v_60 (* (- 1) x23)) (?v_1 (* (- 1) x16)) (?v_20 (* (- 1) x41)) (?v_73 (* (- 1) x20)) (?v_115 (* (- 1) x29)) (?v_25 (* (- 1) x4)) (?v_11 (* (- 1) x40)) (?v_39 (* (- 1) x13)) (?v_18 (* (- 1) x21)) (?v_14 (* (- 1) x3)) (?v_91 (* (- 1) x44)) (?v_15 (* (- 1) x8)) (?v_36 (* (- 1) x1)) (?v_57 (* (- 1) x18)) (?v_72 (* (- 1) x2)) (?v_48 (* (- 1) x22)) (?v_61 (* (- 1) x25)) (?v_24 (* (- 1) x39)) (?v_58 (* (- 1) x24)) (?v_82 (* (- 1) x33)) (?v_49 (* (- 1) x38)) (?v_43 (* (- 1) x6)) (?v_102 (* (- 1) x30)) (?v_90 (* (- 1) x34)) (?v_74 (* (- 2) x41)) (?v_101 (* (- 1) x17)) (?v_96 (* (- 1) x19)) (?v_59 (* (- 1) x26)) (?v_119 (* (- 1) x27)) (?v_97 (* (- 1) x42)) (?v_95 (* (- 1) x14)) (?v_93 (* (- 1) x37)) (?v_89 (* (- 1) x31)) (?v_105 (* (- 1) x28))) (and (<= (+ ?v_47 (+ ?v_7 (+ ?v_38 (+ (* (- 3) x18) (+ ?v_56 (+ ?v_80 (+ ?v_81 (+ ?v_60 (+ (* (- 1) x32) (+ ?v_0 (+ ?v_1 (+ ?v_87 (+ ?v_20 (+ ?v_17 (+ ?v_2 (+ ?v_28 (+ ?v_8 (+ ?v_50 (+ ?v_3 (+ ?v_10 (+ ?v_4 (+ ?v_5 (+ ?v_68 (+ ?v_6 (+ ?v_12 (+ (* 2 x3) ?v_46)))))))))))))))))))))))))) 1) (<= (+ ?v_121 (+ (* (- 2) x2) (+ ?v_73 (+ ?v_88 (+ ?v_26 (+ ?v_0 (+ ?v_13 (+ ?v_1 (+ (* 2 x17) (+ ?v_115 (+ ?v_25 (+ ?v_11 (+ ?v_2 (+ ?v_64 (+ ?v_30 (+ ?v_107 (+ ?v_31 (+ ?v_3 (+ ?v_9 (+ ?v_4 (+ ?v_5 (+ ?v_22 (+ ?v_6 (+ ?v_67 (+ ?v_84 (+ ?v_86 (+ ?v_54 ?v_79))))))))))))))))))))))))))) (- 1)) (<= (+ ?v_37 (+ ?v_7 (+ ?v_39 (+ ?v_71 (+ (* (- 3) x15) (+ ?v_109 (+ ?v_16 (+ ?v_1 (+ ?v_18 (+ ?v_42 (+ ?v_29 (+ (* 0 x28) (+ ?v_8 (+ ?v_14 (+ ?v_91 (+ ?v_15 (+ ?v_65 (+ ?v_9 (+ ?v_21 (+ ?v_23 (+ ?v_35 (+ ?v_33 (+ ?v_10 (+ ?v_19 (+ ?v_11 (+ ?v_12 ?v_45)))))))))))))))))))))))))) (- 1)) (<= (+ ?v_36 (+ ?v_27 (+ ?v_57 (+ ?v_72 (+ ?v_48 (+ ?v_61 (+ ?v_13 (+ ?v_14 (+ ?v_24 (+ ?v_15 (+ ?v_16 (+ ?v_17 (+ ?v_18 (+ (* 2 x28) (+ ?v_98 (+ ?v_9 (+ ?v_32 (+ ?v_19 (+ ?v_85 (+ ?v_11 (+ ?v_20 (+ ?v_44 (+ ?v_12 (+ ?v_34 (+ ?v_21 (+ ?v_22 ?v_23)))))))))))))))))))))))))) 0) (<= (+ ?v_58 (+ ?v_55 (+ ?v_82 (+ ?v_49 (+ ?v_24 (+ ?v_25 (+ ?v_43 (+ ?v_26 (+ ?v_27 (+ ?v_62 (+ ?v_40 (+ (* (- 2) x43) (+ ?v_17 (+ ?v_41 (+ ?v_18 (+ ?v_28 (+ ?v_29 (+ ?v_30 (+ ?v_31 (+ ?v_32 (+ ?v_51 (+ ?v_33 (+ ?v_3 (+ ?v_34 (+ ?v_23 (+ ?v_35 (+ ?v_52 ?v_53))))))))))))))))))))))))))) (- 1)) (<= (+ (* (- 2) x27) (+ ?v_36 (+ ?v_37 (+ ?v_38 (+ ?v_39 (+ ?v_13 (+ ?v_40 (+ ?v_83 (+ ?v_41 (+ ?v_42 (+ ?v_28 (+ ?v_29 (+ ?v_14 (+ ?v_102 (+ ?v_66 (+ ?v_90 (+ ?v_5 (+ ?v_106 (+ ?v_74 (+ ?v_43 (+ ?v_44 (+ ?v_78 (+ ?v_45 (+ ?v_6 (+ ?v_111 (+ ?v_46 (+ ?v_70 ?v_94))))))))))))))))))))))))))) (- 1)) (<= (+ (* (- 2) x32) (+ ?v_47 (+ ?v_7 (+ (* (- 1) x10) (+ ?v_101 (+ ?v_27 (+ ?v_0 (+ ?v_96 (+ ?v_18 (+ ?v_48 (+ ?v_59 (+ ?v_119 (+ ?v_49 (+ ?v_97 (+ (* (- 1) x7) (+ ?v_44 (+ ?v_63 (+ ?v_42 (+ ?v_75 (+ ?v_76 (+ ?v_50 (+ ?v_77 (+ ?v_32 (+ ?v_5 (+ ?v_99 (+ ?v_69 (+ ?v_51 (+ ?v_34 (+ ?v_6 (+ ?v_23 (+ ?v_52 (+ ?v_53 (+ ?v_54 (* 2 x6)))))))))))))))))))))))))))))))))) 1) (<= (+ ?v_38 (+ ?v_55 (+ ?v_56 (+ ?v_27 (+ ?v_57 (+ ?v_58 (+ ?v_59 (+ (* (- 3) x38) (+ ?v_108 (+ ?v_95 (+ ?v_18 (+ ?v_60 (+ ?v_61 (+ ?v_11 (+ ?v_44 (+ ?v_62 (+ ?v_63 (+ ?v_64 (+ ?v_50 (+ ?v_3 (+ ?v_65 (+ ?v_66 (+ ?v_32 (+ ?v_67 (+ ?v_93 (+ ?v_68 (+ ?v_69 (+ ?v_103 (+ ?v_21 ?v_70))))))))))))))))))))))))))))) (- 1)) (<= (+ ?v_71 (+ ?v_26 (+ (* (- 3) x14) (+ (* (- 2) x39) (+ ?v_72 (+ ?v_73 (+ ?v_59 (+ ?v_89 (+ ?v_13 (+ ?v_74 (+ ?v_2 (+ ?v_75 (+ ?v_76 (+ ?v_31 (+ ?v_77 (+ ?v_33 (+ ?v_123 (+ ?v_68 (+ ?v_35 (+ ?v_78 (+ ?v_51 (+ ?v_21 (+ ?v_12 (+ ?v_79 (* 2 x36))))))))))))))))))))))))) (- 1)) (<= (+ ?v_37 (+ ?v_56 (+ ?v_80 (+ ?v_81 (+ ?v_60 (+ ?v_105 (+ ?v_82 (+ (* (- 1) x5) (+ ?v_43 (+ ?v_0 (+ ?v_40 (+ ?v_17 (+ ?v_83 (+ ?v_2 (+ ?v_64 (+ ?v_92 (+ ?v_76 (+ ?v_50 (+ ?v_65 (+ ?v_51 (+ ?v_10 (+ ?v_22 (+ ?v_6 (+ ?v_114 (+ ?v_84 (+ ?v_100 (+ ?v_85 (+ (* 2 x38) ?v_86)))))))))))))))))))))))))))) (- 1)) (<= (+ ?v_7 (+ (* (- 2) x10) (+ ?v_87 (+ ?v_55 (+ ?v_40 (+ ?v_88 (+ ?v_48 (+ ?v_89 (+ ?v_90 (+ ?v_91 (+ ?v_122 (+ ?v_17 (+ ?v_2 (+ ?v_42 (+ ?v_92 (+ ?v_30 (+ ?v_65 (+ ?v_35 (+ ?v_10 (+ ?v_93 (+ ?v_19 (+ ?v_85 (+ ?v_11 (+ ?v_20 (+ ?v_34 (+ ?v_22 (+ ?v_6 ?v_94))))))))))))))))))))))))))) (- 1)) (<= (+ ?v_71 (+ (* (- 2) x22) (+ (* (- 2) x38) (+ ?v_26 (+ ?v_95 (+ (* 2 x15) (+ ?v_96 (+ ?v_82 (+ ?v_11 (+ ?v_97 (+ (* (- 1) x43) (+ ?v_44 (+ ?v_83 (+ ?v_2 (+ ?v_42 (+ ?v_28 (+ ?v_77 (+ ?v_98 (+ ?v_9 (+ ?v_35 (+ ?v_99 (+ ?v_104 (+ ?v_46 (+ ?v_100 (+ ?v_85 (+ ?v_86 (* 2 x5))))))))))))))))))))))))))) 0) (<= (+ (* (- 2) x1) (+ ?v_101 (+ ?v_37 (+ (* 2 x10) (+ ?v_27 (+ ?v_102 (+ (* (- 2) x33) (+ ?v_88 (+ ?v_26 (+ ?v_13 (+ ?v_83 (+ ?v_64 (+ ?v_29 (+ ?v_30 (+ ?v_20 (+ ?v_103 (+ ?v_34 (+ ?v_22 (+ ?v_23 (+ (* 1 x19) (+ ?v_2 (+ ?v_31 (+ ?v_10 (+ (* 2 x31) (+ ?v_104 (+ ?v_52 (+ ?v_53 ?v_116))))))))))))))))))))))))))) 0) (<= (+ ?v_37 (+ ?v_112 (+ ?v_39 (+ (* (- 1) x15) (+ ?v_101 (+ ?v_105 (+ ?v_15 (+ ?v_26 (+ ?v_41 (+ ?v_42 (+ ?v_98 (+ ?v_3 (+ ?v_32 (+ ?v_106 (+ ?v_113 (+ ?v_120 (+ ?v_76 (+ ?v_107 (+ ?v_67 (+ ?v_110 (+ (* 2 x34) (+ ?v_104 (+ ?v_4 (+ ?v_68 (+ ?v_118 (+ ?v_78 (+ ?v_45 (+ (* 2 x44) (+ ?v_21 (+ ?v_22 ?v_52)))))))))))))))))))))))))))))) 0) (<= (+ ?v_37 (+ ?v_7 (+ ?v_39 (+ ?v_58 (+ ?v_91 (+ ?v_13 (+ ?v_87 (+ ?v_41 (+ ?v_29 (+ ?v_3 (+ ?v_65 (+ ?v_9 (+ ?v_32 (+ ?v_108 (+ ?v_106 (+ ?v_96 (+ ?v_109 (+ ?v_76 (+ (* 2 x27) (+ ?v_110 (+ ?v_19 (+ ?v_100 (+ ?v_85 (+ ?v_20 (+ ?v_15 (+ ?v_34 (+ ?v_21 (+ ?v_111 (+ (* 2 x16) (* (- 1) x36)))))))))))))))))))))))))))))) (- 1)) (<= (+ ?v_101 (+ ?v_73 (+ ?v_55 (+ ?v_112 (+ ?v_102 (+ ?v_89 (+ ?v_82 (+ ?v_71 (+ ?v_13 (+ ?v_108 (+ ?v_106 (+ ?v_2 (+ ?v_42 (+ ?v_92 (+ ?v_28 (+ ?v_29 (+ ?v_30 (+ ?v_65 (+ ?v_4 (+ ?v_5 (+ ?v_68 (+ ?v_45 (+ ?v_51 (+ ?v_34 (+ ?v_22 (+ ?v_6 (+ ?v_23 (+ ?v_113 (+ ?v_114 (+ (* 2 x19) (+ (* 2 x35) (+ ?v_104 ?v_86)))))))))))))))))))))))))))))))) 0) (<= (+ ?v_36 (+ ?v_55 (+ ?v_112 (+ ?v_62 (+ (* (- 2) x7) (+ ?v_57 (+ ?v_72 (+ ?v_59 (+ ?v_13 (+ ?v_115 (+ ?v_90 (+ (* (- 1) x35) (+ ?v_25 (+ ?v_17 (+ ?v_41 (+ ?v_42 (+ ?v_92 (+ ?v_28 (+ ?v_117 (+ ?v_98 (+ (* 2 x32) (+ ?v_4 (+ ?v_78 (+ ?v_6 (+ ?v_113 (+ ?v_111 (+ ?v_46 (+ ?v_12 (+ ?v_116 ?v_94))))))))))))))))))))))))))))) 1) (<= (+ ?v_47 (+ ?v_38 (+ ?v_39 (+ ?v_108 (+ (* (- 2) x14) (+ ?v_101 (+ ?v_89 (+ ?v_13 (+ ?v_83 (+ ?v_9 (+ ?v_23 (+ ?v_113 (+ ?v_63 (+ ?v_8 (+ ?v_107 (+ ?v_117 (+ ?v_31 (+ (* 2 x25) (+ ?v_35 (+ ?v_67 (+ ?v_33 (+ ?v_93 (+ ?v_91 (+ ?v_103 (+ ?v_34 (+ ?v_21 (+ ?v_22 (+ ?v_6 (+ ?v_19 (+ ?v_118 (+ ?v_86 ?v_45))))))))))))))))))))))))))))))) 0) (<= (+ ?v_36 (+ ?v_38 (+ ?v_55 (+ ?v_56 (+ ?v_27 (+ (* (- 2) x15) (+ ?v_119 (+ ?v_105 (+ ?v_41 (+ ?v_64 (+ ?v_108 (+ ?v_95 (+ ?v_120 (+ ?v_50 (+ ?v_98 (+ ?v_3 (+ ?v_65 (+ ?v_32 (+ ?v_114 (+ ?v_4 (+ ?v_68 (+ ?v_100 (+ ?v_11 (+ ?v_20 (+ ?v_97 (+ ?v_21 (+ ?v_113 (+ ?v_84 (+ ?v_46 ?v_124))))))))))))))))))))))))))))) (- 1)) (<= (+ ?v_121 (+ ?v_38 (+ ?v_26 (+ ?v_122 (+ ?v_1 (+ ?v_58 (+ ?v_62 (+ ?v_40 (+ ?v_60 (+ ?v_61 (+ ?v_83 (+ ?v_89 (+ ?v_90 (+ ?v_49 (+ ?v_24 (+ ?v_25 (+ ?v_20 (+ ?v_2 (+ ?v_29 (+ ?v_98 (+ ?v_123 (+ ?v_66 (+ ?v_78 (+ ?v_103 (+ ?v_34 (+ ?v_84 (+ ?v_46 (+ ?v_124 (* 1 x8))))))))))))))))))))))))))))) 0))))
(check-sat)
(exit)
